(set-info :smt-lib-version 2.6)
(set-logic QF_FP)
(set-info :source |
Generated by: Chenqi Cui
Generated on: 2026-01-04
Generator: AutoSMTGen
Application: Generating SMT constraints with small solution spaces to make them challenging for SMT solvers
Target solver: Z3, CVC5, Bitwuzla
|)
(set-info :license "https://creativecommons.org/licenses/by/4.0/")
(set-info :category "industrial")
(set-info :status unsat)
; benchmark generated from python API

(declare-fun x6 () (_ FloatingPoint 11 53))
(declare-fun x5 () (_ FloatingPoint 11 53))
(declare-fun x4 () (_ FloatingPoint 11 53))
(declare-fun x3 () (_ FloatingPoint 11 53))
(declare-fun x2 () (_ FloatingPoint 11 53))
(declare-fun x1 () (_ FloatingPoint 11 53))
(declare-fun x0 () (_ FloatingPoint 11 53))
(assert
 (let ((?x17 (fp.add roundNearestTiesToEven (fp.mul roundNearestTiesToEven (fp #b0 #b10000000101 #x3f22d31195f37) x0) (fp.mul roundNearestTiesToEven (fp #b0 #b10000000101 #x301a0421297c0) x1))))
 (let ((?x20 (fp.add roundNearestTiesToEven ?x17 (fp.mul roundNearestTiesToEven (fp #b1 #b10000000100 #x2d8fe9f9e4d95) x2))))
 (let ((?x23 (fp.add roundNearestTiesToEven ?x20 (fp.mul roundNearestTiesToEven (fp #b1 #b10000000101 #x1f685df41cc42) x3))))
 (let ((?x26 (fp.add roundNearestTiesToEven ?x23 (fp.mul roundNearestTiesToEven (fp #b0 #b10000000100 #x427be505716d8) x4))))
 (let ((?x29 (fp.add roundNearestTiesToEven ?x26 (fp.mul roundNearestTiesToEven (fp #b1 #b10000000100 #x8d6d8c0a22bca) x5))))
 (let ((?x32 (fp.add roundNearestTiesToEven ?x29 (fp.mul roundNearestTiesToEven (fp #b0 #b10000000011 #x14c36f5106488) x6))))
 (fp.leq ?x32 (fp #b0 #b10000000100 #x1f3894acc2004)))))))))
(assert
 (let ((?x56 (fp.add roundNearestTiesToEven (fp.mul roundNearestTiesToEven (fp #b1 #b10000000101 #x9db57b5cc3413) x0) (fp.mul roundNearestTiesToEven (fp #b0 #b10000000100 #xbd069948941a4) x1))))
 (let ((?x59 (fp.add roundNearestTiesToEven ?x56 (fp.mul roundNearestTiesToEven (fp #b0 #b10000000010 #x89110f31825cc) x2))))
 (let ((?x62 (fp.add roundNearestTiesToEven ?x59 (fp.mul roundNearestTiesToEven (fp #b1 #b10000000011 #x3169398b991c3) x3))))
 (let ((?x65 (fp.add roundNearestTiesToEven ?x62 (fp.mul roundNearestTiesToEven (fp #b1 #b10000000100 #x4ae69f7283a23) x4))))
 (let ((?x68 (fp.add roundNearestTiesToEven ?x65 (fp.mul roundNearestTiesToEven (fp #b1 #b10000000100 #x8dcba2633ac93) x5))))
 (let ((?x71 (fp.add roundNearestTiesToEven ?x68 (fp.mul roundNearestTiesToEven (fp #b1 #b10000000100 #x05651485bdd60) x6))))
 (fp.leq ?x71 (fp #b1 #b10000000101 #x80e7834460fb3)))))))))
(assert
 (let ((?x78 (fp.add roundNearestTiesToEven (fp.mul roundNearestTiesToEven (fp #b1 #b10000000101 #x1382f00bf8e65) x0) (fp.mul roundNearestTiesToEven (fp #b0 #b10000000100 #x3d84d6bc77034) x1))))
 (let ((?x81 (fp.add roundNearestTiesToEven ?x78 (fp.mul roundNearestTiesToEven (fp #b1 #b10000000100 #xd85833152a1fd) x2))))
 (let ((?x84 (fp.add roundNearestTiesToEven ?x81 (fp.mul roundNearestTiesToEven (fp #b0 #b10000000100 #x1014bde0c87fe) x3))))
 (let ((?x87 (fp.add roundNearestTiesToEven ?x84 (fp.mul roundNearestTiesToEven (fp #b1 #b10000000101 #x604a9f04e27ce) x4))))
 (let ((?x90 (fp.add roundNearestTiesToEven ?x87 (fp.mul roundNearestTiesToEven (fp #b0 #b10000000011 #x3b3cd8d70894f) x5))))
 (let ((?x93 (fp.add roundNearestTiesToEven ?x90 (fp.mul roundNearestTiesToEven (fp #b0 #b10000000011 #x85b344741c7a4) x6))))
 (fp.leq ?x93 (fp #b1 #b10000000011 #x478fab78e31e4)))))))))
(assert
 (let ((?x100 (fp.add roundNearestTiesToEven (fp.mul roundNearestTiesToEven (fp #b1 #b10000000101 #x884f744fe594b) x0) (fp.mul roundNearestTiesToEven (fp #b1 #b10000000011 #xf72e6a5ff5a2a) x1))))
 (let ((?x103 (fp.add roundNearestTiesToEven ?x100 (fp.mul roundNearestTiesToEven (fp #b1 #b10000000011 #x93b9fe1004a52) x2))))
 (let ((?x106 (fp.add roundNearestTiesToEven ?x103 (fp.mul roundNearestTiesToEven (fp #b0 #b10000000100 #x08e7b9da27d00) x3))))
 (let ((?x109 (fp.add roundNearestTiesToEven ?x106 (fp.mul roundNearestTiesToEven (fp #b0 #b10000000101 #xa01ef73f9e45a) x4))))
 (let ((?x112 (fp.add roundNearestTiesToEven ?x109 (fp.mul roundNearestTiesToEven (fp #b0 #b10000000101 #xaf8a0af2da5d5) x5))))
 (let ((?x115 (fp.add roundNearestTiesToEven ?x112 (fp.mul roundNearestTiesToEven (fp #b1 #b10000000100 #x9ac0b10b784af) x6))))
 (fp.leq ?x115 (fp #b0 #b10000000101 #x48437824f46b8)))))))))
(assert
 (let ((?x122 (fp.add roundNearestTiesToEven (fp.mul roundNearestTiesToEven (fp #b1 #b10000000010 #x4407db6b5f22c) x0) (fp.mul roundNearestTiesToEven (fp #b1 #b10000000100 #xfa311e3e9d053) x1))))
 (let ((?x125 (fp.add roundNearestTiesToEven ?x122 (fp.mul roundNearestTiesToEven (fp #b0 #b10000000011 #x04189c3422506) x2))))
 (let ((?x128 (fp.add roundNearestTiesToEven ?x125 (fp.mul roundNearestTiesToEven (fp #b1 #b10000000101 #x357f53060ce9c) x3))))
 (let ((?x131 (fp.add roundNearestTiesToEven ?x128 (fp.mul roundNearestTiesToEven (fp #b0 #b10000000101 #x5f09e8177bf89) x4))))
 (let ((?x134 (fp.add roundNearestTiesToEven ?x131 (fp.mul roundNearestTiesToEven (fp #b1 #b10000000100 #x1c04602e1a251) x5))))
 (let ((?x137 (fp.add roundNearestTiesToEven ?x134 (fp.mul roundNearestTiesToEven (fp #b0 #b10000000101 #x1d940174ff369) x6))))
 (fp.leq ?x137 (fp #b1 #b10000000101 #x96417676ab86a)))))))))
(assert
 (let ((?x144 (fp.add roundNearestTiesToEven (fp.mul roundNearestTiesToEven (fp #b0 #b10000000100 #xe13e6ecf8c654) x0) (fp.mul roundNearestTiesToEven (fp #b0 #b10000000100 #x8964b857bd5e7) x1))))
 (let ((?x147 (fp.add roundNearestTiesToEven ?x144 (fp.mul roundNearestTiesToEven (fp #b0 #b10000000100 #x06983af8854d5) x2))))
 (let ((?x150 (fp.add roundNearestTiesToEven ?x147 (fp.mul roundNearestTiesToEven (fp #b0 #b10000000100 #x2f6016dab2650) x3))))
 (let ((?x153 (fp.add roundNearestTiesToEven ?x150 (fp.mul roundNearestTiesToEven (fp #b0 #b10000000011 #xcd14e1f5177b7) x4))))
 (let ((?x156 (fp.add roundNearestTiesToEven ?x153 (fp.mul roundNearestTiesToEven (fp #b0 #b10000000001 #x755b7641df83e) x5))))
 (let ((?x159 (fp.add roundNearestTiesToEven ?x156 (fp.mul roundNearestTiesToEven (fp #b0 #b10000000101 #x4f6509ba0f0f6) x6))))
 (fp.leq ?x159 (fp #b0 #b10000000100 #xe83f731135588)))))))))
(assert
 (let ((?x166 (fp.add roundNearestTiesToEven (fp.mul roundNearestTiesToEven (fp #b0 #b10000000101 #x97fadeabe1743) x0) (fp.mul roundNearestTiesToEven (fp #b0 #b10000000100 #x437c0d7e8cfae) x1))))
 (let ((?x169 (fp.add roundNearestTiesToEven ?x166 (fp.mul roundNearestTiesToEven (fp #b1 #b10000000100 #x31a3c578c7720) x2))))
 (let ((?x172 (fp.add roundNearestTiesToEven ?x169 (fp.mul roundNearestTiesToEven (fp #b0 #b10000000100 #xf0784f325acea) x3))))
 (let ((?x175 (fp.add roundNearestTiesToEven ?x172 (fp.mul roundNearestTiesToEven (fp #b0 #b10000000001 #x92c2fd17f425c) x4))))
 (let ((?x178 (fp.add roundNearestTiesToEven ?x175 (fp.mul roundNearestTiesToEven (fp #b1 #b10000000101 #x3de704cab4718) x5))))
 (let ((?x181 (fp.add roundNearestTiesToEven ?x178 (fp.mul roundNearestTiesToEven (fp #b1 #b10000000011 #x9b6ca24941310) x6))))
 (fp.leq ?x181 (fp #b1 #b10000000101 #x4ab06d357d43b)))))))))
(assert
 (let ((?x188 (fp.add roundNearestTiesToEven (fp.mul roundNearestTiesToEven (fp #b0 #b10000000101 #x0a845128f5639) x0) (fp.mul roundNearestTiesToEven (fp #b0 #b10000000010 #xc27c01dad1304) x1))))
 (let ((?x191 (fp.add roundNearestTiesToEven ?x188 (fp.mul roundNearestTiesToEven (fp #b0 #b10000000101 #x1d9102b21d90a) x2))))
 (let ((?x194 (fp.add roundNearestTiesToEven ?x191 (fp.mul roundNearestTiesToEven (fp #b0 #b01111111100 #xdb4dbb28823e0) x3))))
 (let ((?x197 (fp.add roundNearestTiesToEven ?x194 (fp.mul roundNearestTiesToEven (fp #b1 #b10000000100 #x80662d9b6c19e) x4))))
 (let ((?x200 (fp.add roundNearestTiesToEven ?x197 (fp.mul roundNearestTiesToEven (fp #b0 #b10000000100 #xb28eea96d1f8d) x5))))
 (let ((?x203 (fp.add roundNearestTiesToEven ?x200 (fp.mul roundNearestTiesToEven (fp #b1 #b10000000101 #x3a32cb7975166) x6))))
 (fp.leq ?x203 (fp #b0 #b10000000100 #x4905588881cc4)))))))))
(assert
 (let ((?x210 (fp.add roundNearestTiesToEven (fp.mul roundNearestTiesToEven (fp #b0 #b10000000011 #x599a7b44bfe16) x0) (fp.mul roundNearestTiesToEven (fp #b1 #b10000000101 #xee25f71a41314) x1))))
 (let ((?x213 (fp.add roundNearestTiesToEven ?x210 (fp.mul roundNearestTiesToEven (fp #b0 #b10000000100 #xc086cefb3a5f2) x2))))
 (let ((?x216 (fp.add roundNearestTiesToEven ?x213 (fp.mul roundNearestTiesToEven (fp #b1 #b10000000010 #xc6ef4347f042d) x3))))
 (let ((?x219 (fp.add roundNearestTiesToEven ?x216 (fp.mul roundNearestTiesToEven (fp #b1 #b10000000011 #xde2e9bc10eebf) x4))))
 (let ((?x222 (fp.add roundNearestTiesToEven ?x219 (fp.mul roundNearestTiesToEven (fp #b0 #b10000000011 #x170a192f62aae) x5))))
 (let ((?x225 (fp.add roundNearestTiesToEven ?x222 (fp.mul roundNearestTiesToEven (fp #b0 #b10000000100 #x5f1a7e5fe2ca8) x6))))
 (fp.leq ?x225 (fp #b0 #b10000000010 #xdecb58e339dd8)))))))))
(assert
 (fp.geq x0 (fp #b1 #b10000100000 #x2a05f20000000)))
(assert
 (fp.leq x0 (fp #b0 #b10000100000 #x2a05f20000000)))
(assert
 (fp.geq x1 (fp #b1 #b10000100000 #x2a05f20000000)))
(assert
 (fp.leq x1 (fp #b0 #b10000100000 #x2a05f20000000)))
(assert
 (fp.geq x2 (fp #b1 #b10000100000 #x2a05f20000000)))
(assert
 (fp.leq x2 (fp #b0 #b10000100000 #x2a05f20000000)))
(assert
 (fp.geq x3 (fp #b1 #b10000100000 #x2a05f20000000)))
(assert
 (fp.leq x3 (fp #b0 #b10000100000 #x2a05f20000000)))
(assert
 (fp.geq x4 (fp #b1 #b10000100000 #x2a05f20000000)))
(assert
 (fp.leq x4 (fp #b0 #b10000100000 #x2a05f20000000)))
(assert
 (fp.geq x5 (fp #b1 #b10000100000 #x2a05f20000000)))
(assert
 (fp.leq x5 (fp #b0 #b10000100000 #x2a05f20000000)))
(assert
 (fp.geq x6 (fp #b1 #b10000100000 #x2a05f20000000)))
(assert
 (fp.leq x6 (fp #b0 #b10000100000 #x2a05f20000000)))
(check-sat)
(exit)
